SumColouring/JavaBacktracker/RandomInstances/26_0.65_2.col
c File: instances/26_0.65_2.col
c
c Description: Random graph of size 26 vertices and P(0.65) of edges between any two vertices.
p col 26 325
e 1 5
e 1 6
e 1 9
e 1 12
e 1 15
e 1 16
e 1 17
e 1 18
e 1 20
e 1 22
e 1 23
e 1 24
e 1 25
e 1 26
e 2 3
e 2 5
e 2 7
e 2 8
e 2 9
e 2 10
e 2 12
e 2 15
e 2 17
e 2 20
e 2 21
e 2 23
e 2 24
e 2 25
e 3 4
e 3 5
e 3 6
e 3 10
e 3 12
e 3 13
e 3 14
e 3 16
e 3 18
e 3 19
e 3 20
e 3 21
e 3 22
e 3 26
e 4 5
e 4 10
e 4 12
e 4 15
e 4 16
e 4 17
e 4 18
e 4 19
e 4 24
e 4 25
e 5 6
e 5 7
e 5 8
e 5 11
e 5 13
e 5 16
e 5 17
e 5 18
e 5 19
e 5 20
e 5 21
e 5 23
e 5 24
e 5 25
e 5 26
e 6 7
e 6 9
e 6 10
e 6 11
e 6 12
e 6 13
e 6 14
e 6 16
e 6 19
e 6 22
e 6 23
e 6 24
e 6 25
e 6 26
e 7 9
e 7 10
e 7 11
e 7 12
e 7 14
e 7 16
e 7 17
e 7 21
e 7 22
e 7 23
e 7 26
e 8 10
e 8 11
e 8 12
e 8 13
e 8 14
e 8 15
e 8 16
e 8 18
e 8 20
e 8 21
e 8 22
e 8 23
e 8 25
e 8 26
e 9 10
e 9 11
e 9 12
e 9 13
e 9 14
e 9 15
e 9 17
e 9 18
e 9 19
e 9 20
e 9 21
e 9 22
e 9 23
e 9 24
e 9 25
e 10 12
e 10 14
e 10 17
e 10 18
e 10 20
e 10 21
e 10 22
e 10 23
e 10 24
e 10 25
e 11 12
e 11 13
e 11 15
e 11 16
e 11 18
e 11 19
e 11 20
e 11 21
e 11 22
e 11 23
e 11 24
e 12 13
e 12 16
e 12 18
e 12 19
e 12 20
e 12 22
e 12 23
e 12 26
e 13 14
e 13 15
e 13 16
e 13 17
e 13 19
e 13 20
e 13 21
e 13 22
e 13 23
e 13 25
e 13 26
e 14 15
e 14 16
e 14 17
e 14 18
e 14 19
e 14 21
e 14 22
e 14 26
e 15 16
e 15 17
e 15 19
e 15 20
e 15 21
e 15 23
e 16 18
e 16 19
e 16 20
e 16 22
e 16 25
e 16 26
e 17 18
e 17 20
e 17 21
e 17 23
e 17 24
e 17 25
e 17 26
e 18 19
e 18 21
e 18 24
e 18 25
e 18 26
e 19 20
e 19 22
e 19 23
e 19 25
e 20 21
e 20 22
e 20 23
e 20 24
e 20 26
e 21 22
e 21 24
e 21 25
e 21 26
e 22 23
e 22 24
e 22 25
e 23 24
e 23 25
e 23 26
e 25 26